NAME          DCAP_2_3_3_200_SS78
ROWS
 N  OBJ
 L  CON1
 L  CON2
 L  CON3
 L  CON4
 L  CON5
 L  CON6
 L  CON7
 L  CON8
 L  CON9
 L  CON10
 L  CON11
 L  CON12
 E  CON13
 E  CON14
 E  CON15
 E  CON16
 E  CON17
 E  CON18
 E  CON19
 E  CON20
 E  CON21
COLUMNS
    x[1,1]    OBJ       6.180167      CON1      1.000000    
    x[1,1]    CON7      -1.000000     CON8      -1.000000   
    x[1,1]    CON9      -1.000000   
    x[1,2]    OBJ       6.563535      CON2      1.000000    
    x[1,2]    CON8      -1.000000     CON9      -1.000000   
    x[1,3]    OBJ       7.443064      CON3      1.000000    
    x[1,3]    CON9      -1.000000   
    x[2,1]    OBJ       6.732585      CON4      1.000000    
    x[2,1]    CON10     -1.000000     CON11     -1.000000   
    x[2,1]    CON12     -1.000000   
    x[2,2]    OBJ       5.039546      CON5      1.000000    
    x[2,2]    CON11     -1.000000     CON12     -1.000000   
    x[2,3]    OBJ       6.054841      CON6      1.000000    
    x[2,3]    CON12     -1.000000   
    MARKER    'MARKER'                'INTORG'
    u[1,1]    OBJ       48.076654     CON1      -1.000000   
    u[1,2]    OBJ       20.066487     CON2      -1.000000   
    u[1,3]    OBJ       32.230043     CON3      -1.000000   
    u[2,1]    OBJ       49.996186     CON4      -1.000000   
    u[2,2]    OBJ       49.466655     CON5      -1.000000   
    u[2,3]    OBJ       27.484319     CON6      -1.000000   
    y[1,1,1]  OBJ       7.218967      CON7      0.942195    
    y[1,1,1]  CON13     1.000000    
    y[1,1,2]  OBJ       9.607097      CON8      1.494120    
    y[1,1,2]  CON14     1.000000    
    y[1,1,3]  OBJ       5.538853      CON9      1.416993    
    y[1,1,3]  CON15     1.000000    
    y[1,2,1]  OBJ       6.996333      CON7      1.056453    
    y[1,2,1]  CON16     1.000000    
    y[1,2,2]  OBJ       7.762956      CON8      1.358567    
    y[1,2,2]  CON17     1.000000    
    y[1,2,3]  OBJ       9.030847      CON9      1.428710    
    y[1,2,3]  CON18     1.000000    
    y[1,3,1]  OBJ       6.226737      CON7      1.199187    
    y[1,3,1]  CON19     1.000000    
    y[1,3,2]  OBJ       8.209146      CON8      1.314711    
    y[1,3,2]  CON20     1.000000    
    y[1,3,3]  OBJ       5.508186      CON9      1.192945    
    y[1,3,3]  CON21     1.000000    
    y[2,1,1]  OBJ       6.399275      CON10     0.942195    
    y[2,1,1]  CON13     1.000000    
    y[2,1,2]  OBJ       9.039845      CON11     1.494120    
    y[2,1,2]  CON14     1.000000    
    y[2,1,3]  OBJ       6.705068      CON12     1.416993    
    y[2,1,3]  CON15     1.000000    
    y[2,2,1]  OBJ       8.424583      CON10     1.056453    
    y[2,2,1]  CON16     1.000000    
    y[2,2,2]  OBJ       8.631229      CON11     1.358567    
    y[2,2,2]  CON17     1.000000    
    y[2,2,3]  OBJ       8.624315      CON12     1.428710    
    y[2,2,3]  CON18     1.000000    
    y[2,3,1]  OBJ       5.552812      CON10     1.199187    
    y[2,3,1]  CON19     1.000000    
    y[2,3,2]  OBJ       8.836839      CON11     1.314711    
    y[2,3,2]  CON20     1.000000    
    y[2,3,3]  OBJ       7.525476      CON12     1.192945    
    y[2,3,3]  CON21     1.000000    
    z[1,1]    OBJ       873.009879    CON13     1.000000    
    z[1,2]    OBJ       853.407321    CON14     1.000000    
    z[1,3]    OBJ       750.134886    CON15     1.000000    
    z[2,1]    OBJ       535.210241    CON16     1.000000    
    z[2,2]    OBJ       546.484951    CON17     1.000000    
    z[2,3]    OBJ       686.240186    CON18     1.000000    
    z[3,1]    OBJ       991.455468    CON19     1.000000    
    z[3,2]    OBJ       899.851765    CON20     1.000000    
    z[3,3]    OBJ       621.809748    CON21     1.000000    
    MARKER    'MARKER'                 'INTEND'
RHS
    RHS       CON1      -0.000000     CON2      -0.000000   
    RHS       CON3      -0.000000     CON4      -0.000000   
    RHS       CON5      -0.000000     CON6      -0.000000   
    RHS       CON7      -0.000000     CON8      -0.000000   
    RHS       CON9      -0.000000     CON10     -0.000000   
    RHS       CON11     -0.000000     CON12     -0.000000   
    RHS       CON13     1.000000      CON14     1.000000    
    RHS       CON15     1.000000      CON16     1.000000    
    RHS       CON17     1.000000      CON18     1.000000    
    RHS       CON19     1.000000      CON20     1.000000    
    RHS       CON21     1.000000    
BOUNDS
 BV BOUND     u[1,1]  
 BV BOUND     u[1,2]  
 BV BOUND     u[1,3]  
 BV BOUND     u[2,1]  
 BV BOUND     u[2,2]  
 BV BOUND     u[2,3]  
 BV BOUND     y[1,1,1]
 BV BOUND     y[1,1,2]
 BV BOUND     y[1,1,3]
 BV BOUND     y[1,2,1]
 BV BOUND     y[1,2,2]
 BV BOUND     y[1,2,3]
 BV BOUND     y[1,3,1]
 BV BOUND     y[1,3,2]
 BV BOUND     y[1,3,3]
 BV BOUND     y[2,1,1]
 BV BOUND     y[2,1,2]
 BV BOUND     y[2,1,3]
 BV BOUND     y[2,2,1]
 BV BOUND     y[2,2,2]
 BV BOUND     y[2,2,3]
 BV BOUND     y[2,3,1]
 BV BOUND     y[2,3,2]
 BV BOUND     y[2,3,3]
 BV BOUND     z[1,1]  
 BV BOUND     z[1,2]  
 BV BOUND     z[1,3]  
 BV BOUND     z[2,1]  
 BV BOUND     z[2,2]  
 BV BOUND     z[2,3]  
 BV BOUND     z[3,1]  
 BV BOUND     z[3,2]  
 BV BOUND     z[3,3]  
ENDATA
